Rodando pra 1h

Optimize a model with 52 rows, 50 columns and 350 nonzeros
Coefficient statistics:
  Matrix range    [1e+00, 1e+04]
  Objective range [3e-01, 7e-01]
  Bounds range    [1e+00, 1e+04]
  RHS range       [1e+00, 1e+04]
Found heuristic solution: objective 179.5
Presolve removed 10 rows and 2 columns
Presolve time: 0.00s
Presolved: 42 rows, 48 columns, 222 nonzeros
Variable types: 20 continuous, 28 integer (26 binary)

Root relaxation: objective 1.526034e+01, 29 iterations, 0.00 seconds

    Nodes    |    Current Node    |     Objective Bounds      |     Work
 Expl Unexpl |  Obj  Depth IntInf | Incumbent    BestBd   Gap | It/Node Time

     0     0   15.26034    0   10  179.50000   15.26034  91.5%     -    0s
H    0     0                     116.0000000   15.26034  86.8%     -    0s
     0     0   27.45487    0   14  116.00000   27.45487  76.3%     -    0s
     0     0   27.61418    0   14  116.00000   27.61418  76.2%     -    0s
     0     0   30.69008    0   16  116.00000   30.69008  73.5%     -    0s
     0     0   30.85152    0   17  116.00000   30.85152  73.4%     -    0s
     0     0   32.33963    0   21  116.00000   32.33963  72.1%     -    0s
     0     0   32.86709    0   22  116.00000   32.86709  71.7%     -    0s
     0     0   35.69022    0   20  116.00000   35.69022  69.2%     -    0s
     0     0   35.77113    0   20  116.00000   35.77113  69.2%     -    0s
     0     0   36.30809    0   21  116.00000   36.30809  68.7%     -    0s
H    0     0                     114.9000000   36.30809  68.4%     -    0s
     0     0   36.95081    0   21  114.90000   36.95081  67.8%     -    0s
     0     0   38.24902    0   20  114.90000   38.24902  66.7%     -    0s
     0     0   38.30799    0   21  114.90000   38.30799  66.7%     -    0s
     0     0   39.69611    0   21  114.90000   39.69611  65.5%     -    0s
     0     0   39.99729    0   20  114.90000   39.99729  65.2%     -    0s
     0     0   40.04386    0   21  114.90000   40.04386  65.1%     -    0s
     0     0   40.04386    0   21  114.90000   40.04386  65.1%     -    0s
     0     2   40.07406    0   21  114.90000   40.07406  65.1%     -    0s
*   11     7               9     106.6000000   40.11604  62.4%   5.9    0s

Cutting planes:
  Gomory: 5
  Cover: 4
  MIR: 25
  Flow cover: 24
  Flow path: 7
  Zero half: 1
  Network: 4

Explored 152 nodes (725 simplex iterations) in 0.04 seconds
Thread count was 1 (of 4 available processors)

Optimal solution found (tolerance 1.00e-04)
Best objective 1.066000000000e+02, best bound 1.066000000000e+02, gap 0.0%
Tempo: 0.04 segundos

0 1 9 15 14 39 
1 4 28 69 46 41 
2 3 31 30 39 29 
3 4 20 8 9 41 
(88 122 108 150 )

